problem_generation/data/GISP/train/er_n=62_m=1089_p=0.60_SET2_setparam=100.00_alpha=0.50_860.lp
maximize
OBJ:100x0 + 100x1 + 100x2 + 100x3 + 100x4 + 100x5 + 100x6 + 100x7 + 100x8 + 100x9 + 100x10 + 100x11 + 100x12 + 100x13 + 100x14 + 100x15 + 100x16 + 100x17 + 100x18 + 100x19 + 100x20 + 100x21 + 100x22 + 100x23 + 100x24 + 100x25 + 100x26 + 100x27 + 100x28 + 100x29 + 100x30 + 100x31 + 100x32 + 100x33 + 100x34 + 100x35 + 100x36 + 100x37 + 100x38 + 100x39 + 100x40 + 100x41 + 100x42 + 100x43 + 100x44 + 100x45 + 100x46 + 100x47 + 100x48 + 100x49 + 100x50 + 100x51 + 100x52 + 100x53 + 100x54 + 100x55 + 100x56 + 100x57 + 100x58 + 100x59 + 100x60 + 100x61 - y15_21 - y7_17 - y15_30 - y7_26 - y21_46 - y10_36 - y33_38 - y33_47 - y2_41 - y33_56 - y25_52 - y14_15 - y32_60 - y3_33 - y14_33 - y3_42 - y14_42 - y7_12 - y47_48 - y55_61 - y17_44 - y7_21 - y9_49 - y29_36 - y40_45 - y21_50 - y10_49 - y2_45 - y22_23 - y2_54 - y14_19 - y22_32 - y13_51 - y14_28 - y13_60 - y24_60 - y7_16 - y36_52 - y28_48 - y21_54 - y2_13 - y10_26 - y54_60 - y33_37 - y2_49 - y24_46 - y35_46 - y3_23 - y17_25 - y36_38 - y7_11 - y28_43 - y36_56 - y5_50 - y28_61 - y6_24 - y9_57 - y21_22 - y29_35 - y21_31 - y6_51 - y10_12 - y2_8 - y25_28 - y13_32 - y32_45 - y51_58 - y24_41 - y43_54 - y28_29 - y28_38 - y36_51 - y9_34 - y28_47 - y5_54 - y50_53 - y29_30 - y9_61 - y21_26 - y42_58 - y20_48 - y12_44 - y2_21 - y20_57 - y4_49 - y35_36 - y13_45 - y24_45 - y16_41 - y35_54 - y16_50 - y16_59 - y5_22 - y57_60 - y5_40 - y9_38 - y5_49 - y9_47 - y27_55 - y8_51 - y21_30 - y8_60 - y19_60 - y20_34 - y31_34 - y2_7 - y39_56 - y12_39 - y12_48 - y31_61 - y13_22 - y4_53 - y16_18 - y13_40 - y35_49 - y16_45 - y9_15 - y17_28 - y9_24 - y49_60 - y5_35 - y17_37 - y5_44 - y8_46 - y19_55 - y30_55 - y42_57 - y0_51 - y20_29 - y23_25 - y12_34 - y2_11 - y4_30 - y31_47 - y4_39 - y12_52 - y23_52 - y4_48 - y23_61 - y16_22 - y1_33 - y24_35 - y16_31 - y38_46 - y17_23 - y57_59 - y9_28 - y5_39 - y7_58 - y19_32 - y12_20 - y20_33 - y23_29 - y12_38 - y1_10 - y23_56 - y1_19 - y4_52 - y34_53 - y45_53 - y1_28 - y4_61 - y1_37 - y37_58 - y5_7 - y5_16 - y26_48 - y7_44 - y49_59 - y30_36 - y27_49 - y11_32 - y8_45 - y11_41 - y8_54 - y11_50 - y20_28 - y4_11 - y12_24 - y41_60 - y20_37 - y31_37 - y52_60 - y12_42 - y4_38 - y45_48 - y1_23 - y34_57 - y3_51 - y37_53 - y46_49 - y26_43 - y15_52 - y8_13 - y15_61 - y27_35 - y19_31 - y8_49 - y0_45 - y0_54 - y41_55 - y20_32 - y4_15 - y33_60 - y25_56 - y34_43 - y1_18 - y22_50 - y45_52 - y34_61 - y45_61 - y56_61 - y15_20 - y5_6 - y18_25 - y7_34 - y15_56 - y7_52 - y0_22 - y8_35 - y11_40 - y12_23 - y4_19 - y33_55 - y44_55 - y34_38 - y3_32 - y22_54 - y37_52 - y14_59 - y37_61 - y7_20 - y15_33 - y7_29 - y26_42 - y18_47 - y7_56 - y18_56 - y21_58 - y4_5 - y52_54 - y4_14 - y22_40 - y34_42 - y34_51 - y45_51 - y14_45 - y37_47 - y37_56 - y15_28 - y26_28 - y7_24 - y18_24 - y15_37 - y26_37 - y18_33 - y7_42 - y0_3 - y8_16 - y19_25 - y48_61 - y6_55 - y40_57 - y41_49 - y41_58 - y2_39 - y10_52 - y33_54 - y25_50 - y3_13 - y2_57 - y14_31 - y14_49 - y15_23 - y18_19 - y15_32 - y7_28 - y18_28 - y8_11 - y29_43 - y21_39 - y11_16 - y29_52 - y21_48 - y6_59 - y29_61 - y40_61 - y10_29 - y41_44 - y25_27 - y10_47 - y25_45 - y3_8 - y51_57 - y2_52 - y25_54 - y36_50 - y17_46 - y7_23 - y59_61 - y17_55 - y28_55 - y6_27 - y6_36 - y48_51 - y21_43 - y6_54 - y29_56 - y21_52 - y2_20 - y25_31 - y33_44 - y2_47 - y3_12 - y51_61 - y14_21 - y32_57 - y14_30 - y1_60 - y17_32 - y36_45 - y55_58 - y17_41 - y28_41 - y9_37 - y17_50 - y5_57 - y6_22 - y6_31 - y6_49 - y6_58 - y2_15 - y2_24 - y20_60 - y2_33 - y24_39 - y32_52 - y13_48 - y24_48 - y16_44 - y24_57 - y16_53 - y17_18 - y9_23 - y6_26 - y21_24 - y50_60 - y10_23 - y54_57 - y10_32 - y13_25 - y13_34 - y24_34 - y3_11 - y24_43 - y32_56 - y16_39 - y43_56 - y9_18 - y9_27 - y9_36 - y6_21 - y9_54 - y42_51 - y6_39 - y8_58 - y42_60 - y39_45 - y2_5 - y31_50 - y2_23 - y4_42 - y13_20 - y4_51 - y13_29 - y32_42 - y51_55 - y24_38 - y24_47 - y16_43 - y38_58 - y5_33 - y6_7 - y6_25 - y42_46 - y0_49 - y11_58 - y10_13 - y20_45 - y2_18 - y23_50 - y13_15 - y4_46 - y13_24 - y13_33 - y13_42 - y35_42 - y46_48 - y46_57 - y5_28 - y15_60 - y6_11 - y8_39 - y19_39 - y30_39 - y50_54 - y8_48 - y19_48 - y30_48 - y20_22 - y0_53 - y12_18 - y39_44 - y39_53 - y12_36 - y31_58 - y4_41 - y1_26 - y13_28 - y56_60 - y13_37 - y35_37 - y16_33 - y38_48 - y57_61 - y5_32 - y27_29 - y27_38 - y19_34 - y27_47 - y0_30 - y19_43 - y30_43 - y27_56 - y30_52 - y11_48 - y12_13 - y30_61 - y11_57 - y12_22 - y20_35 - y12_31 - y23_31 - y4_27 - y23_40 - y1_3 - y4_45 - y45_55 - y1_30 - y37_51 - y16_28 - y3_58 - y46_47 - y26_50 - y8_20 - y19_20 - y19_29 - y27_42 - y11_34 - y19_56 - y0_52 - y52_53 - y12_26 - y33_58 - y44_58 - y12_35 - y1_16 - y37_46 - y34_59 - y56_59 - y14_53 - y15_27 - y26_27 - y26_36 - y5_13 - y46_51 - y26_45 - y38_47 - y27_28 - y0_11 - y19_24 - y48_60 - y27_46 - y11_29 - y8_42 - y30_42 - y0_38 - y19_51 - y30_51 - y20_25 - y60_61 - y12_21 - y41_57 - y52_57 - y4_26 - y34_36 - y3_48 - y14_48 - y37_50 - y3_57 - y37_59 - y7_27 - y18_27 - y15_40 - y7_36 - y26_49 - y7_54 - y8_19 - y8_28 - y11_24 - y29_60 - y8_37 - y40_60 - y11_42 - y33_39 - y12_16 - y33_57 - y1_6 - y2_60 - y34_49 - y56_58 - y14_52 - y15_17 - y3_61 - y15_26 - y7_22 - y18_22 - y26_35 - y26_44 - y0_1 - y7_49 - y8_14 - y18_49 - y48_50 - y40_46 - y48_59 - y6_53 - y11_19 - y30_32 - y11_28 - y25_30 - y4_16 - y44_52 - y33_61 - y44_61 - y2_55 - y25_57 - y22_33 - y3_29 - y37_40 - y3_47 - y7_8
 Subject to
C1: x0+x1-y0_1 <=1 
C2: x0+x3-y0_3 <=1 
C3: x0+x4 <=1 
C4: x0+x6 <=1 
C5: x0+x7 <=1 
C6: x0+x9 <=1 
C7: x0+x10 <=1 
C8: x0+x11-y0_11 <=1 
C9: x0+x12 <=1 
C10: x0+x14 <=1 
C11: x0+x15 <=1 
C12: x0+x18 <=1 
C13: x0+x19 <=1 
C14: x0+x20 <=1 
C15: x0+x22-y0_22 <=1 
C16: x0+x23 <=1 
C17: x0+x27 <=1 
C18: x0+x28 <=1 
C19: x0+x29 <=1 
C20: x0+x30-y0_30 <=1 
C21: x0+x33 <=1 
C22: x0+x38-y0_38 <=1 
C23: x0+x39 <=1 
C24: x0+x41 <=1 
C25: x0+x43 <=1 
C26: x0+x45-y0_45 <=1 
C27: x0+x47 <=1 
C28: x0+x49-y0_49 <=1 
C29: x0+x50 <=1 
C30: x0+x51-y0_51 <=1 
C31: x0+x52-y0_52 <=1 
C32: x0+x53-y0_53 <=1 
C33: x0+x54-y0_54 <=1 
C34: x0+x57 <=1 
C35: x0+x61 <=1 
C36: x1+x3-y1_3 <=1 
C37: x1+x4 <=1 
C38: x1+x6-y1_6 <=1 
C39: x1+x7 <=1 
C40: x1+x10-y1_10 <=1 
C41: x1+x13 <=1 
C42: x1+x16-y1_16 <=1 
C43: x1+x18-y1_18 <=1 
C44: x1+x19-y1_19 <=1 
C45: x1+x23-y1_23 <=1 
C46: x1+x24 <=1 
C47: x1+x26-y1_26 <=1 
C48: x1+x27 <=1 
C49: x1+x28-y1_28 <=1 
C50: x1+x30-y1_30 <=1 
C51: x1+x33-y1_33 <=1 
C52: x1+x37-y1_37 <=1 
C53: x1+x38 <=1 
C54: x1+x40 <=1 
C55: x1+x41 <=1 
C56: x1+x43 <=1 
C57: x1+x44 <=1 
C58: x1+x54 <=1 
C59: x1+x55 <=1 
C60: x1+x57 <=1 
C61: x1+x58 <=1 
C62: x1+x59 <=1 
C63: x1+x60-y1_60 <=1 
C64: x2+x5-y2_5 <=1 
C65: x2+x7-y2_7 <=1 
C66: x2+x8-y2_8 <=1 
C67: x2+x11-y2_11 <=1 
C68: x2+x12 <=1 
C69: x2+x13-y2_13 <=1 
C70: x2+x15-y2_15 <=1 
C71: x2+x16 <=1 
C72: x2+x17 <=1 
C73: x2+x18-y2_18 <=1 
C74: x2+x19 <=1 
C75: x2+x20-y2_20 <=1 
C76: x2+x21-y2_21 <=1 
C77: x2+x23-y2_23 <=1 
C78: x2+x24-y2_24 <=1 
C79: x2+x30 <=1 
C80: x2+x33-y2_33 <=1 
C81: x2+x37 <=1 
C82: x2+x39-y2_39 <=1 
C83: x2+x40 <=1 
C84: x2+x41-y2_41 <=1 
C85: x2+x42 <=1 
C86: x2+x44 <=1 
C87: x2+x45-y2_45 <=1 
C88: x2+x46 <=1 
C89: x2+x47-y2_47 <=1 
C90: x2+x49-y2_49 <=1 
C91: x2+x50 <=1 
C92: x2+x51 <=1 
C93: x2+x52-y2_52 <=1 
C94: x2+x54-y2_54 <=1 
C95: x2+x55-y2_55 <=1 
C96: x2+x56 <=1 
C97: x2+x57-y2_57 <=1 
C98: x2+x59 <=1 
C99: x2+x60-y2_60 <=1 
C100: x2+x61 <=1 
C101: x3+x6 <=1 
C102: x3+x8-y3_8 <=1 
C103: x3+x11-y3_11 <=1 
C104: x3+x12-y3_12 <=1 
C105: x3+x13-y3_13 <=1 
C106: x3+x17 <=1 
C107: x3+x21 <=1 
C108: x3+x23-y3_23 <=1 
C109: x3+x24 <=1 
C110: x3+x29-y3_29 <=1 
C111: x3+x30 <=1 
C112: x3+x32-y3_32 <=1 
C113: x3+x33-y3_33 <=1 
C114: x3+x34 <=1 
C115: x3+x37 <=1 
C116: x3+x38 <=1 
C117: x3+x39 <=1 
C118: x3+x40 <=1 
C119: x3+x42-y3_42 <=1 
C120: x3+x43 <=1 
C121: x3+x47-y3_47 <=1 
C122: x3+x48-y3_48 <=1 
C123: x3+x49 <=1 
C124: x3+x50 <=1 
C125: x3+x51-y3_51 <=1 
C126: x3+x54 <=1 
C127: x3+x55 <=1 
C128: x3+x57-y3_57 <=1 
C129: x3+x58-y3_58 <=1 
C130: x3+x61-y3_61 <=1 
C131: x4+x5-y4_5 <=1 
C132: x4+x6 <=1 
C133: x4+x7 <=1 
C134: x4+x11-y4_11 <=1 
C135: x4+x12 <=1 
C136: x4+x14-y4_14 <=1 
C137: x4+x15-y4_15 <=1 
C138: x4+x16-y4_16 <=1 
C139: x4+x19-y4_19 <=1 
C140: x4+x21 <=1 
C141: x4+x22 <=1 
C142: x4+x23 <=1 
C143: x4+x25 <=1 
C144: x4+x26-y4_26 <=1 
C145: x4+x27-y4_27 <=1 
C146: x4+x28 <=1 
C147: x4+x30-y4_30 <=1 
C148: x4+x32 <=1 
C149: x4+x36 <=1 
C150: x4+x38-y4_38 <=1 
C151: x4+x39-y4_39 <=1 
C152: x4+x41-y4_41 <=1 
C153: x4+x42-y4_42 <=1 
C154: x4+x43 <=1 
C155: x4+x45-y4_45 <=1 
C156: x4+x46-y4_46 <=1 
C157: x4+x48-y4_48 <=1 
C158: x4+x49-y4_49 <=1 
C159: x4+x51-y4_51 <=1 
C160: x4+x52-y4_52 <=1 
C161: x4+x53-y4_53 <=1 
C162: x4+x54 <=1 
C163: x4+x55 <=1 
C164: x4+x59 <=1 
C165: x4+x60 <=1 
C166: x4+x61-y4_61 <=1 
C167: x5+x6-y5_6 <=1 
C168: x5+x7-y5_7 <=1 
C169: x5+x10 <=1 
C170: x5+x13-y5_13 <=1 
C171: x5+x16-y5_16 <=1 
C172: x5+x17 <=1 
C173: x5+x20 <=1 
C174: x5+x22-y5_22 <=1 
C175: x5+x23 <=1 
C176: x5+x24 <=1 
C177: x5+x26 <=1 
C178: x5+x27 <=1 
C179: x5+x28-y5_28 <=1 
C180: x5+x29 <=1 
C181: x5+x31 <=1 
C182: x5+x32-y5_32 <=1 
C183: x5+x33-y5_33 <=1 
C184: x5+x34 <=1 
C185: x5+x35-y5_35 <=1 
C186: x5+x38 <=1 
C187: x5+x39-y5_39 <=1 
C188: x5+x40-y5_40 <=1 
C189: x5+x41 <=1 
C190: x5+x43 <=1 
C191: x5+x44-y5_44 <=1 
C192: x5+x45 <=1 
C193: x5+x47 <=1 
C194: x5+x48 <=1 
C195: x5+x49-y5_49 <=1 
C196: x5+x50-y5_50 <=1 
C197: x5+x54-y5_54 <=1 
C198: x5+x56 <=1 
C199: x5+x57-y5_57 <=1 
C200: x5+x58 <=1 
C201: x5+x59 <=1 
C202: x5+x60 <=1 
C203: x5+x61 <=1 
C204: x6+x7-y6_7 <=1 
C205: x6+x11-y6_11 <=1 
C206: x6+x12 <=1 
C207: x6+x13 <=1 
C208: x6+x16 <=1 
C209: x6+x17 <=1 
C210: x6+x18 <=1 
C211: x6+x19 <=1 
C212: x6+x20 <=1 
C213: x6+x21-y6_21 <=1 
C214: x6+x22-y6_22 <=1 
C215: x6+x23 <=1 
C216: x6+x24-y6_24 <=1 
C217: x6+x25-y6_25 <=1 
C218: x6+x26-y6_26 <=1 
C219: x6+x27-y6_27 <=1 
C220: x6+x31-y6_31 <=1 
C221: x6+x32 <=1 
C222: x6+x33 <=1 
C223: x6+x35 <=1 
C224: x6+x36-y6_36 <=1 
C225: x6+x38 <=1 
C226: x6+x39-y6_39 <=1 
C227: x6+x41 <=1 
C228: x6+x43 <=1 
C229: x6+x44 <=1 
C230: x6+x45 <=1 
C231: x6+x46 <=1 
C232: x6+x49-y6_49 <=1 
C233: x6+x50 <=1 
C234: x6+x51-y6_51 <=1 
C235: x6+x52 <=1 
C236: x6+x53-y6_53 <=1 
C237: x6+x54-y6_54 <=1 
C238: x6+x55-y6_55 <=1 
C239: x6+x58-y6_58 <=1 
C240: x6+x59-y6_59 <=1 
C241: x7+x8-y7_8 <=1 
C242: x7+x11-y7_11 <=1 
C243: x7+x12-y7_12 <=1 
C244: x7+x16-y7_16 <=1 
C245: x7+x17-y7_17 <=1 
C246: x7+x20-y7_20 <=1 
C247: x7+x21-y7_21 <=1 
C248: x7+x22-y7_22 <=1 
C249: x7+x23-y7_23 <=1 
C250: x7+x24-y7_24 <=1 
C251: x7+x26-y7_26 <=1 
C252: x7+x27-y7_27 <=1 
C253: x7+x28-y7_28 <=1 
C254: x7+x29-y7_29 <=1 
C255: x7+x30 <=1 
C256: x7+x32 <=1 
C257: x7+x34-y7_34 <=1 
C258: x7+x36-y7_36 <=1 
C259: x7+x37 <=1 
C260: x7+x41 <=1 
C261: x7+x42-y7_42 <=1 
C262: x7+x44-y7_44 <=1 
C263: x7+x45 <=1 
C264: x7+x46 <=1 
C265: x7+x47 <=1 
C266: x7+x48 <=1 
C267: x7+x49-y7_49 <=1 
C268: x7+x52-y7_52 <=1 
C269: x7+x54-y7_54 <=1 
C270: x7+x55 <=1 
C271: x7+x56-y7_56 <=1 
C272: x7+x57 <=1 
C273: x7+x58-y7_58 <=1 
C274: x7+x60 <=1 
C275: x7+x61 <=1 
C276: x8+x11-y8_11 <=1 
C277: x8+x13-y8_13 <=1 
C278: x8+x14-y8_14 <=1 
C279: x8+x16-y8_16 <=1 
C280: x8+x17 <=1 
C281: x8+x19-y8_19 <=1 
C282: x8+x20-y8_20 <=1 
C283: x8+x21 <=1 
C284: x8+x24 <=1 
C285: x8+x26 <=1 
C286: x8+x27 <=1 
C287: x8+x28-y8_28 <=1 
C288: x8+x29 <=1 
C289: x8+x30 <=1 
C290: x8+x31 <=1 
C291: x8+x35-y8_35 <=1 
C292: x8+x36 <=1 
C293: x8+x37-y8_37 <=1 
C294: x8+x38 <=1 
C295: x8+x39-y8_39 <=1 
C296: x8+x40 <=1 
C297: x8+x41 <=1 
C298: x8+x42-y8_42 <=1 
C299: x8+x43 <=1 
C300: x8+x44 <=1 
C301: x8+x45-y8_45 <=1 
C302: x8+x46-y8_46 <=1 
C303: x8+x48-y8_48 <=1 
C304: x8+x49-y8_49 <=1 
C305: x8+x51-y8_51 <=1 
C306: x8+x52 <=1 
C307: x8+x54-y8_54 <=1 
C308: x8+x57 <=1 
C309: x8+x58-y8_58 <=1 
C310: x8+x60-y8_60 <=1 
C311: x8+x61 <=1 
C312: x9+x14 <=1 
C313: x9+x15-y9_15 <=1 
C314: x9+x17 <=1 
C315: x9+x18-y9_18 <=1 
C316: x9+x20 <=1 
C317: x9+x23-y9_23 <=1 
C318: x9+x24-y9_24 <=1 
C319: x9+x25 <=1 
C320: x9+x27-y9_27 <=1 
C321: x9+x28-y9_28 <=1 
C322: x9+x32 <=1 
C323: x9+x34-y9_34 <=1 
C324: x9+x36-y9_36 <=1 
C325: x9+x37-y9_37 <=1 
C326: x9+x38-y9_38 <=1 
C327: x9+x42 <=1 
C328: x9+x43 <=1 
C329: x9+x44 <=1 
C330: x9+x45 <=1 
C331: x9+x47-y9_47 <=1 
C332: x9+x49-y9_49 <=1 
C333: x9+x50 <=1 
C334: x9+x54-y9_54 <=1 
C335: x9+x55 <=1 
C336: x9+x56 <=1 
C337: x9+x57-y9_57 <=1 
C338: x9+x59 <=1 
C339: x9+x60 <=1 
C340: x9+x61-y9_61 <=1 
C341: x10+x11 <=1 
C342: x10+x12-y10_12 <=1 
C343: x10+x13-y10_13 <=1 
C344: x10+x15 <=1 
C345: x10+x16 <=1 
C346: x10+x18 <=1 
C347: x10+x19 <=1 
C348: x10+x20 <=1 
C349: x10+x22 <=1 
C350: x10+x23-y10_23 <=1 
C351: x10+x26-y10_26 <=1 
C352: x10+x29-y10_29 <=1 
C353: x10+x32-y10_32 <=1 
C354: x10+x35 <=1 
C355: x10+x36-y10_36 <=1 
C356: x10+x38 <=1 
C357: x10+x45 <=1 
C358: x10+x47-y10_47 <=1 
C359: x10+x49-y10_49 <=1 
C360: x10+x51 <=1 
C361: x10+x52-y10_52 <=1 
C362: x10+x54 <=1 
C363: x10+x57 <=1 
C364: x10+x61 <=1 
C365: x11+x12 <=1 
C366: x11+x14 <=1 
C367: x11+x16-y11_16 <=1 
C368: x11+x19-y11_19 <=1 
C369: x11+x24-y11_24 <=1 
C370: x11+x26 <=1 
C371: x11+x27 <=1 
C372: x11+x28-y11_28 <=1 
C373: x11+x29-y11_29 <=1 
C374: x11+x32-y11_32 <=1 
C375: x11+x34-y11_34 <=1 
C376: x11+x36 <=1 
C377: x11+x40-y11_40 <=1 
C378: x11+x41-y11_41 <=1 
C379: x11+x42-y11_42 <=1 
C380: x11+x43 <=1 
C381: x11+x44 <=1 
C382: x11+x45 <=1 
C383: x11+x48-y11_48 <=1 
C384: x11+x50-y11_50 <=1 
C385: x11+x57-y11_57 <=1 
C386: x11+x58-y11_58 <=1 
C387: x11+x60 <=1 
C388: x11+x61 <=1 
C389: x12+x13-y12_13 <=1 
C390: x12+x14 <=1 
C391: x12+x15 <=1 
C392: x12+x16-y12_16 <=1 
C393: x12+x18-y12_18 <=1 
C394: x12+x19 <=1 
C395: x12+x20-y12_20 <=1 
C396: x12+x21-y12_21 <=1 
C397: x12+x22-y12_22 <=1 
C398: x12+x23-y12_23 <=1 
C399: x12+x24-y12_24 <=1 
C400: x12+x26-y12_26 <=1 
C401: x12+x28 <=1 
C402: x12+x30 <=1 
C403: x12+x31-y12_31 <=1 
C404: x12+x34-y12_34 <=1 
C405: x12+x35-y12_35 <=1 
C406: x12+x36-y12_36 <=1 
C407: x12+x37 <=1 
C408: x12+x38-y12_38 <=1 
C409: x12+x39-y12_39 <=1 
C410: x12+x40 <=1 
C411: x12+x42-y12_42 <=1 
C412: x12+x44-y12_44 <=1 
C413: x12+x47 <=1 
C414: x12+x48-y12_48 <=1 
C415: x12+x52-y12_52 <=1 
C416: x12+x61 <=1 
C417: x13+x15-y13_15 <=1 
C418: x13+x20-y13_20 <=1 
C419: x13+x22-y13_22 <=1 
C420: x13+x23 <=1 
C421: x13+x24-y13_24 <=1 
C422: x13+x25-y13_25 <=1 
C423: x13+x27 <=1 
C424: x13+x28-y13_28 <=1 
C425: x13+x29-y13_29 <=1 
C426: x13+x32-y13_32 <=1 
C427: x13+x33-y13_33 <=1 
C428: x13+x34-y13_34 <=1 
C429: x13+x37-y13_37 <=1 
C430: x13+x40-y13_40 <=1 
C431: x13+x42-y13_42 <=1 
C432: x13+x45-y13_45 <=1 
C433: x13+x48-y13_48 <=1 
C434: x13+x51-y13_51 <=1 
C435: x13+x52 <=1 
C436: x13+x53 <=1 
C437: x13+x57 <=1 
C438: x13+x59 <=1 
C439: x13+x60-y13_60 <=1 
C440: x13+x61 <=1 
C441: x14+x15-y14_15 <=1 
C442: x14+x16 <=1 
C443: x14+x19-y14_19 <=1 
C444: x14+x21-y14_21 <=1 
C445: x14+x28-y14_28 <=1 
C446: x14+x29 <=1 
C447: x14+x30-y14_30 <=1 
C448: x14+x31-y14_31 <=1 
C449: x14+x33-y14_33 <=1 
C450: x14+x36 <=1 
C451: x14+x37 <=1 
C452: x14+x38 <=1 
C453: x14+x41 <=1 
C454: x14+x42-y14_42 <=1 
C455: x14+x45-y14_45 <=1 
C456: x14+x46 <=1 
C457: x14+x48-y14_48 <=1 
C458: x14+x49-y14_49 <=1 
C459: x14+x50 <=1 
C460: x14+x52-y14_52 <=1 
C461: x14+x53-y14_53 <=1 
C462: x14+x59-y14_59 <=1 
C463: x14+x60 <=1 
C464: x15+x17-y15_17 <=1 
C465: x15+x18 <=1 
C466: x15+x20-y15_20 <=1 
C467: x15+x21-y15_21 <=1 
C468: x15+x22 <=1 
C469: x15+x23-y15_23 <=1 
C470: x15+x24 <=1 
C471: x15+x26-y15_26 <=1 
C472: x15+x27-y15_27 <=1 
C473: x15+x28-y15_28 <=1 
C474: x15+x29 <=1 
C475: x15+x30-y15_30 <=1 
C476: x15+x32-y15_32 <=1 
C477: x15+x33-y15_33 <=1 
C478: x15+x37-y15_37 <=1 
C479: x15+x38 <=1 
C480: x15+x39 <=1 
C481: x15+x40-y15_40 <=1 
C482: x15+x42 <=1 
C483: x15+x43 <=1 
C484: x15+x44 <=1 
C485: x15+x46 <=1 
C486: x15+x47 <=1 
C487: x15+x49 <=1 
C488: x15+x50 <=1 
C489: x15+x52-y15_52 <=1 
C490: x15+x53 <=1 
C491: x15+x56-y15_56 <=1 
C492: x15+x58 <=1 
C493: x15+x60-y15_60 <=1 
C494: x15+x61-y15_61 <=1 
C495: x16+x17 <=1 
C496: x16+x18-y16_18 <=1 
C497: x16+x19 <=1 
C498: x16+x20 <=1 
C499: x16+x22-y16_22 <=1 
C500: x16+x25 <=1 
C501: x16+x26 <=1 
C502: x16+x28-y16_28 <=1 
C503: x16+x31-y16_31 <=1 
C504: x16+x33-y16_33 <=1 
C505: x16+x35 <=1 
C506: x16+x37 <=1 
C507: x16+x39-y16_39 <=1 
C508: x16+x41-y16_41 <=1 
C509: x16+x42 <=1 
C510: x16+x43-y16_43 <=1 
C511: x16+x44-y16_44 <=1 
C512: x16+x45-y16_45 <=1 
C513: x16+x47 <=1 
C514: x16+x48 <=1 
C515: x16+x50-y16_50 <=1 
C516: x16+x51 <=1 
C517: x16+x53-y16_53 <=1 
C518: x16+x55 <=1 
C519: x16+x57 <=1 
C520: x16+x58 <=1 
C521: x16+x59-y16_59 <=1 
C522: x17+x18-y17_18 <=1 
C523: x17+x19 <=1 
C524: x17+x23-y17_23 <=1 
C525: x17+x24 <=1 
C526: x17+x25-y17_25 <=1 
C527: x17+x26 <=1 
C528: x17+x27 <=1 
C529: x17+x28-y17_28 <=1 
C530: x17+x32-y17_32 <=1 
C531: x17+x35 <=1 
C532: x17+x37-y17_37 <=1 
C533: x17+x38 <=1 
C534: x17+x39 <=1 
C535: x17+x41-y17_41 <=1 
C536: x17+x44-y17_44 <=1 
C537: x17+x46-y17_46 <=1 
C538: x17+x50-y17_50 <=1 
C539: x17+x55-y17_55 <=1 
C540: x17+x58 <=1 
C541: x17+x60 <=1 
C542: x18+x19-y18_19 <=1 
C543: x18+x22-y18_22 <=1 
C544: x18+x23 <=1 
C545: x18+x24-y18_24 <=1 
C546: x18+x25-y18_25 <=1 
C547: x18+x26 <=1 
C548: x18+x27-y18_27 <=1 
C549: x18+x28-y18_28 <=1 
C550: x18+x30 <=1 
C551: x18+x31 <=1 
C552: x18+x32 <=1 
C553: x18+x33-y18_33 <=1 
C554: x18+x45 <=1 
C555: x18+x46 <=1 
C556: x18+x47-y18_47 <=1 
C557: x18+x48 <=1 
C558: x18+x49-y18_49 <=1 
C559: x18+x50 <=1 
C560: x18+x52 <=1 
C561: x18+x56-y18_56 <=1 
C562: x19+x20-y19_20 <=1 
C563: x19+x23 <=1 
C564: x19+x24-y19_24 <=1 
C565: x19+x25-y19_25 <=1 
C566: x19+x26 <=1 
C567: x19+x28 <=1 
C568: x19+x29-y19_29 <=1 
C569: x19+x30 <=1 
C570: x19+x31-y19_31 <=1 
C571: x19+x32-y19_32 <=1 
C572: x19+x33 <=1 
C573: x19+x34-y19_34 <=1 
C574: x19+x35 <=1 
C575: x19+x36 <=1 
C576: x19+x37 <=1 
C577: x19+x39-y19_39 <=1 
C578: x19+x43-y19_43 <=1 
C579: x19+x44 <=1 
C580: x19+x45 <=1 
C581: x19+x46 <=1 
C582: x19+x48-y19_48 <=1 
C583: x19+x49 <=1 
C584: x19+x51-y19_51 <=1 
C585: x19+x52 <=1 
C586: x19+x55-y19_55 <=1 
C587: x19+x56-y19_56 <=1 
C588: x19+x59 <=1 
C589: x19+x60-y19_60 <=1 
C590: x19+x61 <=1 
C591: x20+x22-y20_22 <=1 
C592: x20+x24 <=1 
C593: x20+x25-y20_25 <=1 
C594: x20+x28-y20_28 <=1 
C595: x20+x29-y20_29 <=1 
C596: x20+x30 <=1 
C597: x20+x32-y20_32 <=1 
C598: x20+x33-y20_33 <=1 
C599: x20+x34-y20_34 <=1 
C600: x20+x35-y20_35 <=1 
C601: x20+x37-y20_37 <=1 
C602: x20+x45-y20_45 <=1 
C603: x20+x48-y20_48 <=1 
C604: x20+x57-y20_57 <=1 
C605: x20+x58 <=1 
C606: x20+x59 <=1 
C607: x20+x60-y20_60 <=1 
C608: x21+x22-y21_22 <=1 
C609: x21+x24-y21_24 <=1 
C610: x21+x25 <=1 
C611: x21+x26-y21_26 <=1 
C612: x21+x27 <=1 
C613: x21+x29 <=1 
C614: x21+x30-y21_30 <=1 
C615: x21+x31-y21_31 <=1 
C616: x21+x33 <=1 
C617: x21+x37 <=1 
C618: x21+x38 <=1 
C619: x21+x39-y21_39 <=1 
C620: x21+x42 <=1 
C621: x21+x43-y21_43 <=1 
C622: x21+x45 <=1 
C623: x21+x46-y21_46 <=1 
C624: x21+x47 <=1 
C625: x21+x48-y21_48 <=1 
C626: x21+x49 <=1 
C627: x21+x50-y21_50 <=1 
C628: x21+x51 <=1 
C629: x21+x52-y21_52 <=1 
C630: x21+x54-y21_54 <=1 
C631: x21+x57 <=1 
C632: x21+x58-y21_58 <=1 
C633: x21+x60 <=1 
C634: x21+x61 <=1 
C635: x22+x23-y22_23 <=1 
C636: x22+x25 <=1 
C637: x22+x27 <=1 
C638: x22+x28 <=1 
C639: x22+x29 <=1 
C640: x22+x32-y22_32 <=1 
C641: x22+x33-y22_33 <=1 
C642: x22+x36 <=1 
C643: x22+x40-y22_40 <=1 
C644: x22+x41 <=1 
C645: x22+x46 <=1 
C646: x22+x50-y22_50 <=1 
C647: x22+x53 <=1 
C648: x22+x54-y22_54 <=1 
C649: x22+x55 <=1 
C650: x22+x57 <=1 
C651: x22+x58 <=1 
C652: x22+x61 <=1 
C653: x23+x24 <=1 
C654: x23+x25-y23_25 <=1 
C655: x23+x26 <=1 
C656: x23+x29-y23_29 <=1 
C657: x23+x30 <=1 
C658: x23+x31-y23_31 <=1 
C659: x23+x33 <=1 
C660: x23+x36 <=1 
C661: x23+x38 <=1 
C662: x23+x39 <=1 
C663: x23+x40-y23_40 <=1 
C664: x23+x49 <=1 
C665: x23+x50-y23_50 <=1 
C666: x23+x52-y23_52 <=1 
C667: x23+x56-y23_56 <=1 
C668: x23+x60 <=1 
C669: x23+x61-y23_61 <=1 
C670: x24+x26 <=1 
C671: x24+x29 <=1 
C672: x24+x30 <=1 
C673: x24+x33 <=1 
C674: x24+x34-y24_34 <=1 
C675: x24+x35-y24_35 <=1 
C676: x24+x37 <=1 
C677: x24+x38-y24_38 <=1 
C678: x24+x39-y24_39 <=1 
C679: x24+x41-y24_41 <=1 
C680: x24+x42 <=1 
C681: x24+x43-y24_43 <=1 
C682: x24+x45-y24_45 <=1 
C683: x24+x46-y24_46 <=1 
C684: x24+x47-y24_47 <=1 
C685: x24+x48-y24_48 <=1 
C686: x24+x52 <=1 
C687: x24+x54 <=1 
C688: x24+x55 <=1 
C689: x24+x56 <=1 
C690: x24+x57-y24_57 <=1 
C691: x24+x58 <=1 
C692: x24+x60-y24_60 <=1 
C693: x24+x61 <=1 
C694: x25+x26 <=1 
C695: x25+x27-y25_27 <=1 
C696: x25+x28-y25_28 <=1 
C697: x25+x29 <=1 
C698: x25+x30-y25_30 <=1 
C699: x25+x31-y25_31 <=1 
C700: x25+x33 <=1 
C701: x25+x34 <=1 
C702: x25+x35 <=1 
C703: x25+x38 <=1 
C704: x25+x39 <=1 
C705: x25+x40 <=1 
C706: x25+x41 <=1 
C707: x25+x44 <=1 
C708: x25+x45-y25_45 <=1 
C709: x25+x46 <=1 
C710: x25+x47 <=1 
C711: x25+x49 <=1 
C712: x25+x50-y25_50 <=1 
C713: x25+x52-y25_52 <=1 
C714: x25+x54-y25_54 <=1 
C715: x25+x56-y25_56 <=1 
C716: x25+x57-y25_57 <=1 
C717: x25+x59 <=1 
C718: x25+x61 <=1 
C719: x26+x27-y26_27 <=1 
C720: x26+x28-y26_28 <=1 
C721: x26+x30 <=1 
C722: x26+x32 <=1 
C723: x26+x35-y26_35 <=1 
C724: x26+x36-y26_36 <=1 
C725: x26+x37-y26_37 <=1 
C726: x26+x38 <=1 
C727: x26+x39 <=1 
C728: x26+x42-y26_42 <=1 
C729: x26+x43-y26_43 <=1 
C730: x26+x44-y26_44 <=1 
C731: x26+x45-y26_45 <=1 
C732: x26+x47 <=1 
C733: x26+x48-y26_48 <=1 
C734: x26+x49-y26_49 <=1 
C735: x26+x50-y26_50 <=1 
C736: x26+x52 <=1 
C737: x26+x53 <=1 
C738: x26+x54 <=1 
C739: x26+x55 <=1 
C740: x26+x56 <=1 
C741: x26+x58 <=1 
C742: x26+x60 <=1 
C743: x27+x28-y27_28 <=1 
C744: x27+x29-y27_29 <=1 
C745: x27+x30 <=1 
C746: x27+x32 <=1 
C747: x27+x34 <=1 
C748: x27+x35-y27_35 <=1 
C749: x27+x36 <=1 
C750: x27+x38-y27_38 <=1 
C751: x27+x42-y27_42 <=1 
C752: x27+x45 <=1 
C753: x27+x46-y27_46 <=1 
C754: x27+x47-y27_47 <=1 
C755: x27+x48 <=1 
C756: x27+x49-y27_49 <=1 
C757: x27+x51 <=1 
C758: x27+x53 <=1 
C759: x27+x55-y27_55 <=1 
C760: x27+x56-y27_56 <=1 
C761: x27+x57 <=1 
C762: x27+x59 <=1 
C763: x28+x29-y28_29 <=1 
C764: x28+x31 <=1 
C765: x28+x32 <=1 
C766: x28+x34 <=1 
C767: x28+x36 <=1 
C768: x28+x37 <=1 
C769: x28+x38-y28_38 <=1 
C770: x28+x41-y28_41 <=1 
C771: x28+x42 <=1 
C772: x28+x43-y28_43 <=1 
C773: x28+x45 <=1 
C774: x28+x46 <=1 
C775: x28+x47-y28_47 <=1 
C776: x28+x48-y28_48 <=1 
C777: x28+x50 <=1 
C778: x28+x52 <=1 
C779: x28+x55-y28_55 <=1 
C780: x28+x56 <=1 
C781: x28+x57 <=1 
C782: x28+x61-y28_61 <=1 
C783: x29+x30-y29_30 <=1 
C784: x29+x32 <=1 
C785: x29+x35-y29_35 <=1 
C786: x29+x36-y29_36 <=1 
C787: x29+x37 <=1 
C788: x29+x39 <=1 
C789: x29+x40 <=1 
C790: x29+x41 <=1 
C791: x29+x42 <=1 
C792: x29+x43-y29_43 <=1 
C793: x29+x44 <=1 
C794: x29+x47 <=1 
C795: x29+x50 <=1 
C796: x29+x51 <=1 
C797: x29+x52-y29_52 <=1 
C798: x29+x53 <=1 
C799: x29+x55 <=1 
C800: x29+x56-y29_56 <=1 
C801: x29+x58 <=1 
C802: x29+x60-y29_60 <=1 
C803: x29+x61-y29_61 <=1 
C804: x30+x32-y30_32 <=1 
C805: x30+x36-y30_36 <=1 
C806: x30+x37 <=1 
C807: x30+x39-y30_39 <=1 
C808: x30+x42-y30_42 <=1 
C809: x30+x43-y30_43 <=1 
C810: x30+x45 <=1 
C811: x30+x47 <=1 
C812: x30+x48-y30_48 <=1 
C813: x30+x49 <=1 
C814: x30+x51-y30_51 <=1 
C815: x30+x52-y30_52 <=1 
C816: x30+x54 <=1 
C817: x30+x55-y30_55 <=1 
C818: x30+x56 <=1 
C819: x30+x57 <=1 
C820: x30+x59 <=1 
C821: x30+x61-y30_61 <=1 
C822: x31+x33 <=1 
C823: x31+x34-y31_34 <=1 
C824: x31+x37-y31_37 <=1 
C825: x31+x43 <=1 
C826: x31+x47-y31_47 <=1 
C827: x31+x49 <=1 
C828: x31+x50-y31_50 <=1 
C829: x31+x51 <=1 
C830: x31+x52 <=1 
C831: x31+x54 <=1 
C832: x31+x55 <=1 
C833: x31+x57 <=1 
C834: x31+x58-y31_58 <=1 
C835: x31+x60 <=1 
C836: x31+x61-y31_61 <=1 
C837: x32+x37 <=1 
C838: x32+x39 <=1 
C839: x32+x42-y32_42 <=1 
C840: x32+x44 <=1 
C841: x32+x45-y32_45 <=1 
C842: x32+x47 <=1 
C843: x32+x52-y32_52 <=1 
C844: x32+x53 <=1 
C845: x32+x54 <=1 
C846: x32+x55 <=1 
C847: x32+x56-y32_56 <=1 
C848: x32+x57-y32_57 <=1 
C849: x32+x58 <=1 
C850: x32+x59 <=1 
C851: x32+x60-y32_60 <=1 
C852: x33+x35 <=1 
C853: x33+x36 <=1 
C854: x33+x37-y33_37 <=1 
C855: x33+x38-y33_38 <=1 
C856: x33+x39-y33_39 <=1 
C857: x33+x41 <=1 
C858: x33+x44-y33_44 <=1 
C859: x33+x45 <=1 
C860: x33+x47-y33_47 <=1 
C861: x33+x48 <=1 
C862: x33+x49 <=1 
C863: x33+x50 <=1 
C864: x33+x51 <=1 
C865: x33+x52 <=1 
C866: x33+x54-y33_54 <=1 
C867: x33+x55-y33_55 <=1 
C868: x33+x56-y33_56 <=1 
C869: x33+x57-y33_57 <=1 
C870: x33+x58-y33_58 <=1 
C871: x33+x60-y33_60 <=1 
C872: x33+x61-y33_61 <=1 
C873: x34+x35 <=1 
C874: x34+x36-y34_36 <=1 
C875: x34+x38-y34_38 <=1 
C876: x34+x39 <=1 
C877: x34+x41 <=1 
C878: x34+x42-y34_42 <=1 
C879: x34+x43-y34_43 <=1 
C880: x34+x44 <=1 
C881: x34+x45 <=1 
C882: x34+x46 <=1 
C883: x34+x48 <=1 
C884: x34+x49-y34_49 <=1 
C885: x34+x51-y34_51 <=1 
C886: x34+x53-y34_53 <=1 
C887: x34+x57-y34_57 <=1 
C888: x34+x59-y34_59 <=1 
C889: x34+x61-y34_61 <=1 
C890: x35+x36-y35_36 <=1 
C891: x35+x37-y35_37 <=1 
C892: x35+x42-y35_42 <=1 
C893: x35+x45 <=1 
C894: x35+x46-y35_46 <=1 
C895: x35+x49-y35_49 <=1 
C896: x35+x54-y35_54 <=1 
C897: x35+x61 <=1 
C898: x36+x37 <=1 
C899: x36+x38-y36_38 <=1 
C900: x36+x40 <=1 
C901: x36+x42 <=1 
C902: x36+x44 <=1 
C903: x36+x45-y36_45 <=1 
C904: x36+x47 <=1 
C905: x36+x49 <=1 
C906: x36+x50-y36_50 <=1 
C907: x36+x51-y36_51 <=1 
C908: x36+x52-y36_52 <=1 
C909: x36+x54 <=1 
C910: x36+x56-y36_56 <=1 
C911: x36+x57 <=1 
C912: x36+x58 <=1 
C913: x36+x59 <=1 
C914: x36+x60 <=1 
C915: x37+x39 <=1 
C916: x37+x40-y37_40 <=1 
C917: x37+x44 <=1 
C918: x37+x45 <=1 
C919: x37+x46-y37_46 <=1 
C920: x37+x47-y37_47 <=1 
C921: x37+x49 <=1 
C922: x37+x50-y37_50 <=1 
C923: x37+x51-y37_51 <=1 
C924: x37+x52-y37_52 <=1 
C925: x37+x53-y37_53 <=1 
C926: x37+x55 <=1 
C927: x37+x56-y37_56 <=1 
C928: x37+x58-y37_58 <=1 
C929: x37+x59-y37_59 <=1 
C930: x37+x61-y37_61 <=1 
C931: x38+x39 <=1 
C932: x38+x40 <=1 
C933: x38+x41 <=1 
C934: x38+x43 <=1 
C935: x38+x44 <=1 
C936: x38+x46-y38_46 <=1 
C937: x38+x47-y38_47 <=1 
C938: x38+x48-y38_48 <=1 
C939: x38+x49 <=1 
C940: x38+x52 <=1 
C941: x38+x55 <=1 
C942: x38+x56 <=1 
C943: x38+x57 <=1 
C944: x38+x58-y38_58 <=1 
C945: x38+x59 <=1 
C946: x38+x61 <=1 
C947: x39+x44-y39_44 <=1 
C948: x39+x45-y39_45 <=1 
C949: x39+x48 <=1 
C950: x39+x51 <=1 
C951: x39+x52 <=1 
C952: x39+x53-y39_53 <=1 
C953: x39+x56-y39_56 <=1 
C954: x39+x58 <=1 
C955: x40+x45-y40_45 <=1 
C956: x40+x46-y40_46 <=1 
C957: x40+x47 <=1 
C958: x40+x50 <=1 
C959: x40+x52 <=1 
C960: x40+x53 <=1 
C961: x40+x57-y40_57 <=1 
C962: x40+x58 <=1 
C963: x40+x59 <=1 
C964: x40+x60-y40_60 <=1 
C965: x40+x61-y40_61 <=1 
C966: x41+x42 <=1 
C967: x41+x43 <=1 
C968: x41+x44-y41_44 <=1 
C969: x41+x45 <=1 
C970: x41+x47 <=1 
C971: x41+x49-y41_49 <=1 
C972: x41+x55-y41_55 <=1 
C973: x41+x57-y41_57 <=1 
C974: x41+x58-y41_58 <=1 
C975: x41+x60-y41_60 <=1 
C976: x42+x44 <=1 
C977: x42+x46-y42_46 <=1 
C978: x42+x47 <=1 
C979: x42+x50 <=1 
C980: x42+x51-y42_51 <=1 
C981: x42+x52 <=1 
C982: x42+x53 <=1 
C983: x42+x54 <=1 
C984: x42+x55 <=1 
C985: x42+x57-y42_57 <=1 
C986: x42+x58-y42_58 <=1 
C987: x42+x60-y42_60 <=1 
C988: x42+x61 <=1 
C989: x43+x47 <=1 
C990: x43+x48 <=1 
C991: x43+x50 <=1 
C992: x43+x51 <=1 
C993: x43+x52 <=1 
C994: x43+x54-y43_54 <=1 
C995: x43+x56-y43_56 <=1 
C996: x43+x57 <=1 
C997: x43+x61 <=1 
C998: x44+x45 <=1 
C999: x44+x46 <=1 
C1000: x44+x47 <=1 
C1001: x44+x52-y44_52 <=1 
C1002: x44+x54 <=1 
C1003: x44+x55-y44_55 <=1 
C1004: x44+x56 <=1 
C1005: x44+x57 <=1 
C1006: x44+x58-y44_58 <=1 
C1007: x44+x60 <=1 
C1008: x44+x61-y44_61 <=1 
C1009: x45+x48-y45_48 <=1 
C1010: x45+x51-y45_51 <=1 
C1011: x45+x52-y45_52 <=1 
C1012: x45+x53-y45_53 <=1 
C1013: x45+x55-y45_55 <=1 
C1014: x45+x56 <=1 
C1015: x45+x57 <=1 
C1016: x45+x61-y45_61 <=1 
C1017: x46+x47-y46_47 <=1 
C1018: x46+x48-y46_48 <=1 
C1019: x46+x49-y46_49 <=1 
C1020: x46+x51-y46_51 <=1 
C1021: x46+x52 <=1 
C1022: x46+x53 <=1 
C1023: x46+x56 <=1 
C1024: x46+x57-y46_57 <=1 
C1025: x46+x58 <=1 
C1026: x46+x59 <=1 
C1027: x46+x60 <=1 
C1028: x47+x48-y47_48 <=1 
C1029: x47+x49 <=1 
C1030: x47+x51 <=1 
C1031: x47+x52 <=1 
C1032: x47+x56 <=1 
C1033: x47+x58 <=1 
C1034: x47+x60 <=1 
C1035: x48+x50-y48_50 <=1 
C1036: x48+x51-y48_51 <=1 
C1037: x48+x54 <=1 
C1038: x48+x56 <=1 
C1039: x48+x57 <=1 
C1040: x48+x58 <=1 
C1041: x48+x59-y48_59 <=1 
C1042: x48+x60-y48_60 <=1 
C1043: x48+x61-y48_61 <=1 
C1044: x49+x50 <=1 
C1045: x49+x54 <=1 
C1046: x49+x55 <=1 
C1047: x49+x57 <=1 
C1048: x49+x58 <=1 
C1049: x49+x59-y49_59 <=1 
C1050: x49+x60-y49_60 <=1 
C1051: x49+x61 <=1 
C1052: x50+x53-y50_53 <=1 
C1053: x50+x54-y50_54 <=1 
C1054: x50+x55 <=1 
C1055: x50+x56 <=1 
C1056: x50+x59 <=1 
C1057: x50+x60-y50_60 <=1 
C1058: x50+x61 <=1 
C1059: x51+x53 <=1 
C1060: x51+x54 <=1 
C1061: x51+x55-y51_55 <=1 
C1062: x51+x57-y51_57 <=1 
C1063: x51+x58-y51_58 <=1 
C1064: x51+x60 <=1 
C1065: x51+x61-y51_61 <=1 
C1066: x52+x53-y52_53 <=1 
C1067: x52+x54-y52_54 <=1 
C1068: x52+x55 <=1 
C1069: x52+x57-y52_57 <=1 
C1070: x52+x60-y52_60 <=1 
C1071: x53+x59 <=1 
C1072: x54+x57-y54_57 <=1 
C1073: x54+x58 <=1 
C1074: x54+x59 <=1 
C1075: x54+x60-y54_60 <=1 
C1076: x55+x56 <=1 
C1077: x55+x58-y55_58 <=1 
C1078: x55+x61-y55_61 <=1 
C1079: x56+x58-y56_58 <=1 
C1080: x56+x59-y56_59 <=1 
C1081: x56+x60-y56_60 <=1 
C1082: x56+x61-y56_61 <=1 
C1083: x57+x59-y57_59 <=1 
C1084: x57+x60-y57_60 <=1 
C1085: x57+x61-y57_61 <=1 
C1086: x58+x60 <=1 
C1087: x58+x61 <=1 
C1088: x59+x61-y59_61 <=1 
C1089: x60+x61-y60_61 <=1 

binary
x0
x1
x2
x3
x4
x5
x6
x7
x8
x9
x10
x11
x12
x13
x14
x15
x16
x17
x18
x19
x20
x21
x22
x23
x24
x25
x26
x27
x28
x29
x30
x31
x32
x33
x34
x35
x36
x37
x38
x39
x40
x41
x42
x43
x44
x45
x46
x47
x48
x49
x50
x51
x52
x53
x54
x55
x56
x57
x58
x59
x60
x61
