problem_generation/data/GISP/train/er_n=62_m=1089_p=0.60_SET2_setparam=100.00_alpha=0.50_860.sol
objective value:                                 1279
x7                                                  1 	(obj:100)
x13                                                 1 	(obj:100)
x14                                                 1 	(obj:100)
x18                                                 1 	(obj:100)
x20                                                 1 	(obj:100)
x22                                                 1 	(obj:100)
x35                                                 1 	(obj:100)
x39                                                 1 	(obj:100)
x40                                                 1 	(obj:100)
x42                                                 1 	(obj:100)
x43                                                 1 	(obj:100)
x49                                                 1 	(obj:100)
x56                                                 1 	(obj:100)
y14_42                                              1 	(obj:-1)
y39_56                                              1 	(obj:-1)
y13_22                                              1 	(obj:-1)
y13_40                                              1 	(obj:-1)
y35_49                                              1 	(obj:-1)
y7_20                                               1 	(obj:-1)
y7_56                                               1 	(obj:-1)
y18_56                                              1 	(obj:-1)
y22_40                                              1 	(obj:-1)
y7_42                                               1 	(obj:-1)
y14_49                                              1 	(obj:-1)
y43_56                                              1 	(obj:-1)
y13_20                                              1 	(obj:-1)
y13_42                                              1 	(obj:-1)
y35_42                                              1 	(obj:-1)
y20_22                                              1 	(obj:-1)
y20_35                                              1 	(obj:-1)
y7_22                                               1 	(obj:-1)
y18_22                                              1 	(obj:-1)
y7_49                                               1 	(obj:-1)
y18_49                                              1 	(obj:-1)
